c status 9 1469274441169
c status 8 1469274441169
s td 9 8 16
b 1 1 2 6 14 15
b 2 16 2 4 6 10
b 3 7 2 4 12 15
b 4 8 3 6 10 14
b 5 13 4 6 12 14
b 6 9 2 3 10 15
b 7 11 3 4 10 12
b 8 5 3 12 14 15
b 9 2 3 4 6 10 12 14 15
1 9
9 2
9 7
9 3
9 4
9 5
9 6
9 8
